proyfinal/src/viki/013/andrea/andrea-localstore/experimentInOfficeAgust.take6/worker_10/411d41db-2430-4ad5-aea8-a9ebb15c389f.als.cnf.out
Reading from standard input... Use '--help' for help.
============================[ Problem Statistics ]=============================
|                                                                             |
|  Number of variables:         87638                                         |
|  Number of clauses:          161767                                         |
|  Parse time:                   0.04 s                                       |
|                                                                             |
============================[ Search Statistics ]==============================
| Conflicts |          ORIGINAL         |          LEARNT          | Progress |
|           |    Vars  Clauses Literals |    Limit  Clauses Lit/Cl |          |
===============================================================================
|       100 |   63777   110200   275587 |    40406      100     11 | 27.227 % |
|       250 |   63776   110156   275497 |    44447      249     44 | 27.228 % |
|       475 |   63776   110156   275497 |    48892      474     57 | 27.228 % |
|       812 |   63776   110156   275497 |    53781      811     68 | 27.228 % |
|      1318 |   63776   110156   275497 |    59159     1317     64 | 27.228 % |
|      2077 |   63776   110156   275497 |    65075     2076     73 | 27.228 % |
|      3216 |   63776   110156   275497 |    71582     3215     72 | 27.228 % |
|      4924 |   63746   110038   275223 |    78741     4701     67 | 27.262 % |
|      7486 |   63727   109960   275043 |    86615     7251     80 | 27.284 % |
===============================================================================
restarts              : 46
conflicts             : 11066          (6092 /sec)
decisions             : 35863          (0.00 % random) (19743 /sec)
propagations          : 17975976       (9895744 /sec)
conflict literals     : 797501         (52.97 % deleted)
Memory used           : 38.55 MB
CPU time              : 1.81654 s

UNSATISFIABLE
